932615.75
977799.40
1014099.61
1053197.44
932615.75
977799.40
1010641.45
1034976.97
796648.44
858109.32
900760.11
950608.42
796648.44
854704.20
893782.11
928941.75
793439.56
854900.45
898266.08
950608.43
793439.56
851495.32
893076.71
928941.75
